This is Ipopt version 3.10.0, running with linear solver ma27.

Number of nonzeros in equality constraint Jacobian...:        0
Number of nonzeros in inequality constraint Jacobian.:        6
Number of nonzeros in Lagrangian Hessian.............:        0

Total number of variables............................:        2
                     variables with only lower bounds:        2
                variables with lower and upper bounds:        0
                     variables with only upper bounds:        0
Total number of equality constraints.................:        0
Total number of inequality constraints...............:        3
        inequality constraints with only lower bounds:        0
   inequality constraints with lower and upper bounds:        0
        inequality constraints with only upper bounds:        3

iter    objective    inf_pr   inf_du lg(mu)  ||d||  lg(rg) alpha_du alpha_pr  ls
   0  1.0050237e+00 0.00e+00 5.71e-01   0.0 0.00e+00    -  0.00e+00 0.00e+00   0
   1  3.4260107e-01 0.00e+00 2.49e-01  -6.1 4.39e-01    -  1.00e+00 1.00e+00f  1
   2  1.9231809e-01 1.42e-02 2.60e-01  -7.0 5.16e-01    -  1.00e+00 1.00e+00h  1
   3  1.9471659e-01 0.00e+00 8.97e-03  -2.4 2.36e-01    -  1.00e+00 1.00e+00h  1
   4  1.9460662e-01 6.04e-04 1.14e-02  -4.0 1.83e-02    -  9.70e-01 1.00e+00h  1
   5  1.9373562e-01 3.60e-03 2.36e-03  -4.9 7.67e-02    -  1.00e+00 1.00e+00h  1
   6  1.9424551e-01 0.00e+00 1.06e-03  -6.6 8.75e-03    -  1.00e+00 1.00e+00h  1

Number of Iterations....: 6

                                   (scaled)                 (unscaled)
Objective...............:   1.9424551338609250e-01    1.9424551338609250e-01
Dual infeasibility......:   1.0616218750476665e-03    1.0616218750476665e-03
Constraint violation....:   0.0000000000000000e+00    0.0000000000000000e+00
Complementarity.........:   5.1573385698378445e-06    5.1573385698378445e-06
Overall NLP error.......:   1.0616218750476665e-03    1.0616218750476665e-03


Number of objective function evaluations             = 7
Number of objective gradient evaluations             = 7
Number of equality constraint evaluations            = 0
Number of inequality constraint evaluations          = 7
Number of equality constraint Jacobian evaluations   = 0
Number of inequality constraint Jacobian evaluations = 7
Number of Lagrangian Hessian evaluations             = 0
Total CPU secs in IPOPT (w/o function evaluations)   =      0.014
Total CPU secs in NLP function evaluations           =     49.214

EXIT: Stopping optimization at current point as requested by user.
